1636
79 36 5 6 28 44 88 11 41 12 64 76 82 73 83 71 22 68 49 8 59 55 87 45 69 46 14 38 62 58 78 1 93 96 52 89 4 99 33 35 75 31 56 34 65 57 21 26 16 32 74 48 54 84 80 18 20 91 39 85 95 70 29 86 30 24 23 13 17 40 37 66 50 67 98 25 10 94 92 90 42 60 81 77 9 51 72 15 97 47 2 19 27 53 43 63 61 3 7 
